Please solve the following SAT Problem encoded in DIMACS format, only return a single solution without explanations, if there is any: 
p cnf 5 12
-1 3 2 0
4 -3 2 0
2 5 -3 0
-3 -5 -4 0
-2 -4 -5 0
5 -3 2 0
-3 5 -4 0
-5 2 -4 0
-1 -4 2 0
2 -4 -3 0
-4 5 2 0
-5 2 -1 0

